proyfinal/src/viki/013/andrea/andrea-localstore/experimentInOfficeAgust.take6/worker_6/c1db02f4-84ed-4e90-a852-aabbba554379.als.cnf.out
Reading from standard input... Use '--help' for help.
============================[ Problem Statistics ]=============================
|                                                                             |
|  Number of variables:         87638                                         |
|  Number of clauses:          161767                                         |
|  Parse time:                   0.03 s                                       |
|                                                                             |
============================[ Search Statistics ]==============================
| Conflicts |          ORIGINAL         |          LEARNT          | Progress |
|           |    Vars  Clauses Literals |    Limit  Clauses Lit/Cl |          |
===============================================================================
|       100 |   65251   115620   288257 |    42394      100      9 | 25.545 % |
|       250 |   65215   115620   288257 |    46633      247     12 | 25.586 % |
|       475 |   65195   115404   287716 |    51296      465     62 | 25.609 % |
|       812 |   65195   115404   287716 |    56426      802     76 | 25.609 % |
|      1318 |   65195   115404   287716 |    62069     1308     67 | 25.609 % |
|      2077 |   57774   115396   287698 |    68275     2063     61 | 34.077 % |
|      3216 |   57734    90611   226185 |    75103     2656     69 | 34.122 % |
|      4924 |   57663    90483   225902 |    82613     4356     56 | 34.203 % |
|      7486 |   57567    89921   224624 |    90875     5961     56 | 34.313 % |
|     11330 |   57567    89808   224354 |    99962     9804     59 | 34.313 % |
|     17096 |   57409    89124   222751 |   109959    14380     63 | 34.493 % |
===============================================================================
restarts              : 70
conflicts             : 20272          (8895 /sec)
decisions             : 69544          (0.00 % random) (30516 /sec)
propagations          : 25856843       (11346045 /sec)
conflict literals     : 1246425        (45.27 % deleted)
Memory used           : 37.57 MB
CPU time              : 2.27893 s

UNSATISFIABLE
